NAME : a280.tsp
COMMENT : Optimal tour for a280.tsp
TYPE : TOUR
DIMENSION : 280
Total Length: 2898.761019482522
TOUR_SECTION
1
2
280
3
279
278
260
261
262
263
264
265
266
267
137
136
268
269
135
134
270
16
271
15
272
273
274
275
276
277
4
5
6
7
9
8
10
11
12
13
14
24
23
25
22
26
27
28
29
126
127
128
21
20
19
18
17
133
132
131
130
129
154
155
153
156
152
151
178
177
176
180
179
150
149
138
140
139
148
141
142
147
146
143
144
145
199
193
186
187
185
184
183
182
181
175
160
159
158
157
119
120
121
122
123
124
125
30
31
32
33
34
35
36
37
38
39
40
41
42
43
60
61
118
117
115
116
86
62
63
59
44
45
46
47
48
49
50
51
52
53
54
55
56
57
58
64
65
85
66
67
68
69
70
71
72
73
74
84
83
88
82
81
80
79
76
75
77
78
95
94
96
97
98
93
92
91
90
89
109
108
110
112
87
113
114
111
107
106
105
104
103
102
101
99
100
168
167
166
171
172
170
169
173
174
161
162
163
164
165
188
189
190
191
192
194
195
196
197
198
201
200
202
203
204
205
206
208
252
253
254
255
257
258
259
256
249
248
244
243
242
241
240
239
238
237
236
235
234
233
232
231
246
245
247
250
251
230
229
228
210
209
207
212
211
214
213
216
215
218
217
220
221
222
219
227
226
225
224
223
-1
EOF
